
Gurobi 11.0.3 (linux64) logging started Sat Nov 23 16:34:44 2024

Set parameter LogFile to value "/home/yihong/Coding/OR_SUC/SUC_results_bigM100000_thread4/case24_ieee_rts_theta0.5_epsilon0.025_gurobi_seed920000_num_gen100_N_WDR50_load_scaling_factor1_exact_T24quadra_cost.txt"
Set parameter TimeLimit to value 3600
Gurobi Optimizer version 11.0.3 build v11.0.3rc0 (linux64 - "Ubuntu 20.04.6 LTS")

CPU model: AMD EPYC 7532 32-Core Processor, instruction set [SSE2|AVX|AVX2]
Thread count: 64 physical cores, 128 logical processors, using up to 4 threads

Optimize a model with 50071 rows, 29861 columns and 508398 nonzeros
Model fingerprint: 0x117d3a8a
Model has 2400 quadratic constraints
Variable types: 27411 continuous, 2450 integer (2450 binary)
Coefficient statistics:
  Matrix range     [3e-04, 1e+05]
  QMatrix range    [2e-03, 8e-03]
  QLMatrix range   [7e-01, 6e+01]
  Objective range  [1e+00, 1e+00]
  Bounds range     [1e+00, 1e+00]
  RHS range        [1e+00, 1e+05]
Presolve removed 40360 rows and 12960 columns
Presolve time: 0.22s
Presolved: 9711 rows, 16901 columns, 51959 nonzeros
Presolved model has 2400 quadratic constraint(s)
Variable types: 14479 continuous, 2422 integer (2422 binary)

Root relaxation: objective 6.804841e+04, 7898 iterations, 0.17 seconds (0.24 work units)

    Nodes    |    Current Node    |     Objective Bounds      |     Work
 Expl Unexpl |  Obj  Depth IntInf | Incumbent    BestBd   Gap | It/Node Time

     0     0 68048.4072    0   26          - 68048.4072      -     -    0s
     0     0 365027.253    0  664          - 365027.253      -     -    1s
     0     0 365360.425    0  664          - 365360.425      -     -    1s
     0     0 365419.291    0  664          - 365419.291      -     -    1s
     0     0 365511.180    0  664          - 365511.180      -     -    1s
     0     0 365572.355    0  664          - 365572.355      -     -    1s
     0     0 365591.593    0  663          - 365591.593      -     -    1s
     0     0 365598.762    0  663          - 365598.762      -     -    1s
     0     0 365599.885    0  663          - 365599.885      -     -    1s
     0     0 365609.281    0  663          - 365609.281      -     -    1s
     0     0 365610.940    0  663          - 365610.940      -     -    1s
     0     0 365611.130    0  663          - 365611.130      -     -    1s
     0     0 416354.058    0  699          - 416354.058      -     -    1s
     0     0 416356.809    0  699          - 416356.809      -     -    1s
     0     0 416357.053    0  699          - 416357.053      -     -    1s
     0     0 416359.748    0  699          - 416359.748      -     -    1s
     0     0 416362.470    0  698          - 416362.470      -     -    1s
     0     0 643023.354    0  640          - 643023.354      -     -    1s
     0     0 643060.795    0  380          - 643060.795      -     -    1s
     0     0 643301.776    0  287          - 643301.776      -     -    1s
     0     0 643304.479    0  287          - 643304.479      -     -    1s
     0     0 643304.479    0  287          - 643304.479      -     -    1s
     0     0 643304.903    0  287          - 643304.903      -     -    2s
     0     2 643304.903    0  287          - 643304.903      -     -    2s
H  399   333                    643429.80181 643329.346  0.02%  18.0    3s
*  399   333             148    643429.80181 643329.346  0.02%  18.0    3s

Cutting planes:
  Gomory: 2
  Implied bound: 385
  MIR: 100
  Flow cover: 87
  RLT: 1
  PSD: 1

Explored 501 nodes (31035 simplex iterations) in 4.68 seconds (5.62 work units)
Thread count was 4 (of 128 available processors)

Solution count 2: 643430 643430 

Optimal solution found (tolerance 1.00e-03)
Warning: max constraint violation (2.3508e-08) exceeds tolerance
Best objective 6.434298004748e+05, best bound 6.433293463275e+05, gap 0.0156%
